NAME : local_6
TYPE : ATSP
DIMENSION : 15
EDGE_WEIGHT_TYPE : EXPLICIT
EDGE_WEIGHT_FORMAT : FULL_MATRIX
EDGE_WEIGHT_SECTION
0 684 485 10000000 851 10000000 839 985 951 951 10000000 374 684 487 10000000 
0 0 443 562 205 10000000 10000000 394 431 10000000 10000000 974 10000000 10000000 10000000 
0 443 0 753 509 10000000 10000000 628 563 10000000 10000000 649 1054 787 10000000 
0 562 753 0 467 10000000 10000000 169 189 10000000 10000000 10000000 10000000 10000000 10000000 
0 205 509 467 0 10000000 10000000 306 352 10000000 10000000 10000000 10000000 10000000 10000000 
0 10000000 10000000 10000000 10000000 0 734 10000000 10000000 573 162 10000000 838 10000000 119 
0 10000000 10000000 10000000 10000000 734 0 10000000 10000000 238 627 642 225 560 638 
0 394 628 169 306 10000000 10000000 0 127 10000000 10000000 10000000 10000000 10000000 10000000 
0 431 563 189 352 10000000 10000000 127 0 10000000 10000000 10000000 10000000 10000000 10000000 
0 10000000 10000000 10000000 10000000 573 238 10000000 10000000 0 437 727 326 636 498 
0 10000000 10000000 10000000 10000000 162 627 10000000 10000000 437 0 1034 714 982 174 
0 963 607 10000000 10000000 10000000 642 10000000 10000000 702 1082 0 436 294 10000000 
0 10000000 1036 10000000 10000000 838 225 10000000 10000000 326 714 436 0 342 763 
0 10000000 784 10000000 10000000 10000000 560 10000000 10000000 595 1002 294 342 0 1073 
0 10000000 10000000 10000000 10000000 10000000 10000000 10000000 10000000 10000000 10000000 10000000 10000000 10000000 0 
EOF